
&CONTROL
   calculation      = 'scf'
   verbosity        = 'high'
   restart_mode     = 'from_scratch'
   tstress          = .true.
   tprnfor          = .true.
   outdir           = '../tmp/Be'
   prefix           = 'Be'
   pseudo_dir       = '../pseudo/'
/
&SYSTEM
   ibrav            = 0
   nbnd             = 4
   ecutwfc          = 40
   ecutrho          = 160
   nosym            = .true.
   noinv            = .true.
   occupations      = 'smearing'
   degauss          = 0.0018874
   smearing         = 'fermi-dirac'
   ntyp             = 1
   nat              = 2
/
&ELECTRONS
   conv_thr         = 0.02
   mixing_mode      = 'plain'
   mixing_beta      = 0.1
/
ATOMIC_SPECIES
Be 9.0121831 Be.pbe-n-rrkjus_psl.1.0.0.UPF

K_POINTS automatic
 8 8 8 0 0 0
ATOMIC_POSITIONS angstrom
  Be 1.7528828707 0.3210037143 2.6776725841 
  Be -0.6229700257 1.6360627414 0.8922054159 

CELL_PARAMETERS angstrom
2.332099337756899 0.10826406674229039 0.13159657397719837
-1.2763674295881589 1.7782046695484703 -0.09003395724103168
-0.0734533163660343 0.08819719455262481 3.6239129708356796

