
&CONTROL
   calculation      = 'scf'
   verbosity        = 'high'
   restart_mode     = 'from_scratch'
   tstress          = .true.
   tprnfor          = .true.
   outdir           = '../tmp/Si'
   prefix           = 'Si'
   pseudo_dir       = '../pseudo/'
/
&SYSTEM
   ibrav            = 0
   
   
   ecutwfc          = 40
   ecutrho          = 160
   nosym            = .true.
   noinv            = .true.
   occupations      = 'smearing'
   degauss          = 0.0018874
   smearing         = 'fermi-dirac'
   ntyp             = 1
   nat              = 2
/
&ELECTRONS
   conv_thr         = 0.02
   mixing_mode      = 'plain'
   mixing_beta      = 0.1
/

ATOMIC_SPECIES
 Si  28.086  Si.pz-vbc.UPF
 
K_POINTS automatic
8 8 8 0 0 0

CELL_PARAMETERS angstrom
2.655082578551366 0.14695008975376134 -0.19592263662677467
-1.3434535226075166 2.1681424430988105 -0.1106196898919364
0.01753729728549741 0.12901029373024503 4.663983785519216      
ATOMIC_POSITIONS crystal
Si           0.3333333333       0.6666666666       0.2500000000 
Si           0.6666666667       0.3333333333       0.7500000000 


