
&CONTROL
   calculation      = 'scf'
   verbosity        = 'high'
   restart_mode     = 'from_scratch'
   tstress          = .true.
   tprnfor          = .true.
   outdir           = '../tmp/Si'
   prefix           = 'Si'
   pseudo_dir       = '../pseudo/'
/
&SYSTEM
   ibrav            = 0
   
   
   ecutwfc          = 40
   ecutrho          = 160
   nosym            = .true.
   noinv            = .true.
   occupations      = 'smearing'
   degauss          = 0.0018874
   smearing         = 'fermi-dirac'
   ntyp             = 1
   nat              = 2
/
&ELECTRONS
   conv_thr         = 0.02
   mixing_mode      = 'plain'
   mixing_beta      = 0.1
/

ATOMIC_SPECIES
 Si  28.086  Si.pz-vbc.UPF
 
K_POINTS automatic
8 8 8 0 0 0

CELL_PARAMETERS angstrom
2.547759321990199 0.1643757944819863 0.0196769859802442
-1.219133067835628 2.361614502400824 -0.13619229352620965
0.0865913585735722 -0.08016033632594617 4.7147370008610565      
ATOMIC_POSITIONS crystal
Si           0.3333333333       0.6666666666       0.2500000000 
Si           0.6666666667       0.3333333333       0.7500000000 


