
&CONTROL
   calculation      = 'scf'
   verbosity        = 'high'
   restart_mode     = 'from_scratch'
   tstress          = .true.
   tprnfor          = .true.
   outdir           = '../tmp/Si'
   prefix           = 'Si'
   pseudo_dir       = '../pseudo/'
/
&SYSTEM
   ibrav            = 0
   
   
   ecutwfc          = 40
   ecutrho          = 160
   nosym            = .true.
   noinv            = .true.
   occupations      = 'smearing'
   degauss          = 0.0018874
   smearing         = 'fermi-dirac'
   ntyp             = 1
   nat              = 2
/
&ELECTRONS
   conv_thr         = 0.02
   mixing_mode      = 'plain'
   mixing_beta      = 0.1
/

ATOMIC_SPECIES
 Si  28.086  Si.pz-vbc.UPF
 
K_POINTS automatic
8 8 8 0 0 0

CELL_PARAMETERS angstrom
2.7071525100448897 0.07094052958165792 0.06824904657313641
-1.3550982177576947 2.4315372990517536 0.011701290864677333
0.06367412575291553 -0.06969476062987728 4.694652282656929      
ATOMIC_POSITIONS crystal
Si           0.3333333333       0.6666666666       0.2500000000 
Si           0.6666666667       0.3333333333       0.7500000000 


